c Generated map
c Size: 30 * 30, weights in range: 1 to 10, walls: True, with ratio 0.1
c dim 2 of 3
c
p sp 900 1414
c graph contains 900 nodes and 1414 arcs
c
a 1 31 1
a 31 1 1
a 1 2 2
a 2 1 2
a 2 32 4
a 32 2 4
a 2 3 8
a 3 2 8
a 3 33 8
a 33 3 8
a 3 4 10
a 4 3 10
a 4 5 9
a 5 4 9
a 5 35 10
a 35 5 10
a 7 8 1
a 8 7 1
a 8 38 2
a 38 8 2
a 8 9 4
a 9 8 4
a 9 39 10
a 39 9 10
a 9 10 7
a 10 9 7
a 10 40 10
a 40 10 10
a 10 11 3
a 11 10 3
a 11 41 9
a 41 11 9
a 11 12 10
a 12 11 10
a 12 42 7
a 42 12 7
a 14 44 7
a 44 14 7
a 14 15 6
a 15 14 6
a 15 45 4
a 45 15 4
a 15 16 2
a 16 15 2
a 16 46 9
a 46 16 9
a 16 17 9
a 17 16 9
a 17 47 5
a 47 17 5
a 17 18 8
a 18 17 8
a 18 48 7
a 48 18 7
a 18 19 8
a 19 18 8
a 19 49 5
a 49 19 5
a 19 20 7
a 20 19 7
a 20 50 8
a 50 20 8
a 20 21 8
a 21 20 8
a 21 51 4
a 51 21 4
a 21 22 4
a 22 21 4
a 22 52 6
a 52 22 6
a 22 23 8
a 23 22 8
a 23 24 1
a 24 23 1
a 24 54 8
a 54 24 8
a 24 25 4
a 25 24 4
a 25 26 3
a 26 25 3
a 26 56 9
a 56 26 9
a 26 27 1
a 27 26 1
a 27 57 4
a 57 27 4
a 27 28 6
a 28 27 6
a 28 58 5
a 58 28 5
a 28 29 10
a 29 28 10
a 29 59 4
a 59 29 4
a 31 32 4
a 32 31 4
a 32 33 1
a 33 32 1
a 33 63 9
a 63 33 9
a 35 65 8
a 65 35 8
a 35 36 2
a 36 35 2
a 36 66 9
a 66 36 9
a 38 68 4
a 68 38 4
a 38 39 1
a 39 38 1
a 39 69 4
a 69 39 4
a 39 40 9
a 40 39 9
a 40 70 2
a 70 40 2
a 40 41 6
a 41 40 6
a 41 71 9
a 71 41 9
a 41 42 6
a 42 41 6
a 42 72 1
a 72 42 1
a 42 43 3
a 43 42 3
a 43 73 10
a 73 43 10
a 43 44 3
a 44 43 3
a 44 74 2
a 74 44 2
a 44 45 6
a 45 44 6
a 45 75 6
a 75 45 6
a 45 46 3
a 46 45 3
a 46 76 4
a 76 46 4
a 46 47 3
a 47 46 3
a 47 77 8
a 77 47 8
a 47 48 8
a 48 47 8
a 48 78 7
a 78 48 7
a 48 49 3
a 49 48 3
a 49 79 5
a 79 49 5
a 49 50 8
a 50 49 8
a 50 80 6
a 80 50 6
a 50 51 5
a 51 50 5
a 51 52 1
a 52 51 1
a 52 82 10
a 82 52 10
a 54 84 9
a 84 54 9
a 56 86 10
a 86 56 10
a 56 57 8
a 57 56 8
a 57 87 8
a 87 57 8
a 57 58 10
a 58 57 10
a 58 88 2
a 88 58 2
a 58 59 8
a 59 58 8
a 59 89 1
a 89 59 1
a 59 60 4
a 60 59 4
a 63 93 8
a 93 63 8
a 63 64 3
a 64 63 3
a 64 94 3
a 94 64 3
a 64 65 3
a 65 64 3
a 65 95 8
a 95 65 8
a 65 66 3
a 66 65 3
a 66 96 2
a 96 66 2
a 66 67 3
a 67 66 3
a 67 97 4
a 97 67 4
a 67 68 5
a 68 67 5
a 68 98 3
a 98 68 3
a 68 69 9
a 69 68 9
a 69 99 3
a 99 69 3
a 69 70 6
a 70 69 6
a 70 71 1
a 71 70 1
a 71 101 2
a 101 71 2
a 71 72 1
a 72 71 1
a 72 102 1
a 102 72 1
a 72 73 2
a 73 72 2
a 73 103 2
a 103 73 2
a 73 74 4
a 74 73 4
a 74 104 7
a 104 74 7
a 74 75 8
a 75 74 8
a 75 105 4
a 105 75 4
a 75 76 8
a 76 75 8
a 76 106 9
a 106 76 9
a 76 77 5
a 77 76 5
a 77 107 6
a 107 77 6
a 77 78 9
a 78 77 9
a 78 108 3
a 108 78 3
a 78 79 4
a 79 78 4
a 79 109 1
a 109 79 1
a 79 80 1
a 80 79 1
a 80 110 9
a 110 80 9
a 82 112 2
a 112 82 2
a 82 83 10
a 83 82 10
a 83 113 1
a 113 83 1
a 83 84 10
a 84 83 10
a 84 114 10
a 114 84 10
a 84 85 4
a 85 84 4
a 85 115 10
a 115 85 10
a 85 86 6
a 86 85 6
a 86 116 3
a 116 86 3
a 86 87 8
a 87 86 8
a 87 117 8
a 117 87 8
a 87 88 8
a 88 87 8
a 88 118 1
a 118 88 1
a 88 89 5
a 89 88 5
a 89 119 7
a 119 89 7
a 91 92 2
a 92 91 2
a 92 122 6
a 122 92 6
a 92 93 5
a 93 92 5
a 93 94 9
a 94 93 9
a 94 124 7
a 124 94 7
a 94 95 3
a 95 94 3
a 95 125 5
a 125 95 5
a 95 96 9
a 96 95 9
a 96 126 6
a 126 96 6
a 96 97 7
a 97 96 7
a 97 127 5
a 127 97 5
a 97 98 9
a 98 97 9
a 98 128 4
a 128 98 4
a 98 99 5
a 99 98 5
a 99 129 4
a 129 99 4
a 101 131 1
a 131 101 1
a 101 102 4
a 102 101 4
a 102 132 5
a 132 102 5
a 102 103 4
a 103 102 4
a 103 133 3
a 133 103 3
a 103 104 7
a 104 103 7
a 104 134 8
a 134 104 8
a 104 105 1
a 105 104 1
a 105 135 3
a 135 105 3
a 105 106 1
a 106 105 1
a 106 136 7
a 136 106 7
a 106 107 6
a 107 106 6
a 107 137 8
a 137 107 8
a 107 108 7
a 108 107 7
a 108 138 6
a 138 108 6
a 108 109 7
a 109 108 7
a 109 139 6
a 139 109 6
a 109 110 2
a 110 109 2
a 110 140 7
a 140 110 7
a 110 111 8
a 111 110 8
a 111 141 10
a 141 111 10
a 111 112 4
a 112 111 4
a 112 142 7
a 142 112 7
a 112 113 4
a 113 112 4
a 113 143 5
a 143 113 5
a 113 114 6
a 114 113 6
a 114 144 6
a 144 114 6
a 114 115 9
a 115 114 9
a 115 145 5
a 145 115 5
a 115 116 6
a 116 115 6
a 116 146 4
a 146 116 4
a 116 117 1
a 117 116 1
a 117 147 8
a 147 117 8
a 117 118 2
a 118 117 2
a 118 148 5
a 148 118 5
a 118 119 9
a 119 118 9
a 119 149 6
a 149 119 6
a 119 120 5
a 120 119 5
a 120 150 7
a 150 120 7
a 122 152 7
a 152 122 7
a 124 154 2
a 154 124 2
a 124 125 9
a 125 124 9
a 125 155 4
a 155 125 4
a 125 126 1
a 126 125 1
a 126 156 2
a 156 126 2
a 126 127 4
a 127 126 4
a 127 157 3
a 157 127 3
a 127 128 7
a 128 127 7
a 128 158 4
a 158 128 4
a 128 129 7
a 129 128 7
a 129 159 2
a 159 129 2
a 129 130 4
a 130 129 4
a 130 160 5
a 160 130 5
a 130 131 3
a 131 130 3
a 131 161 4
a 161 131 4
a 131 132 3
a 132 131 3
a 132 162 7
a 162 132 7
a 132 133 4
a 133 132 4
a 133 163 2
a 163 133 2
a 133 134 3
a 134 133 3
a 134 164 7
a 164 134 7
a 134 135 7
a 135 134 7
a 135 165 9
a 165 135 9
a 135 136 5
a 136 135 5
a 136 166 3
a 166 136 3
a 136 137 9
a 137 136 9
a 137 167 7
a 167 137 7
a 137 138 8
a 138 137 8
a 138 168 9
a 168 138 9
a 138 139 6
a 139 138 6
a 139 169 1
a 169 139 1
a 139 140 2
a 140 139 2
a 140 170 7
a 170 140 7
a 140 141 7
a 141 140 7
a 141 171 7
a 171 141 7
a 141 142 5
a 142 141 5
a 142 172 8
a 172 142 8
a 142 143 3
a 143 142 3
a 143 173 10
a 173 143 10
a 143 144 9
a 144 143 9
a 144 174 8
a 174 144 8
a 144 145 3
a 145 144 3
a 145 175 7
a 175 145 7
a 145 146 8
a 146 145 8
a 146 176 7
a 176 146 7
a 146 147 3
a 147 146 3
a 147 177 6
a 177 147 6
a 147 148 10
a 148 147 10
a 148 178 3
a 178 148 3
a 148 149 4
a 149 148 4
a 149 179 1
a 179 149 1
a 149 150 2
a 150 149 2
a 150 180 6
a 180 150 6
a 151 181 8
a 181 151 8
a 151 152 4
a 152 151 4
a 152 182 5
a 182 152 5
a 154 155 3
a 155 154 3
a 155 185 8
a 185 155 8
a 155 156 10
a 156 155 10
a 156 186 1
a 186 156 1
a 156 157 2
a 157 156 2
a 157 187 2
a 187 157 2
a 157 158 2
a 158 157 2
a 158 159 1
a 159 158 1
a 159 189 9
a 189 159 9
a 159 160 6
a 160 159 6
a 160 161 5
a 161 160 5
a 161 191 6
a 191 161 6
a 161 162 4
a 162 161 4
a 162 192 7
a 192 162 7
a 162 163 9
a 163 162 9
a 163 193 1
a 193 163 1
a 163 164 7
a 164 163 7
a 164 194 7
a 194 164 7
a 164 165 3
a 165 164 3
a 165 195 3
a 195 165 3
a 165 166 3
a 166 165 3
a 166 196 4
a 196 166 4
a 166 167 8
a 167 166 8
a 167 197 5
a 197 167 5
a 167 168 2
a 168 167 2
a 168 198 8
a 198 168 8
a 168 169 9
a 169 168 9
a 169 199 1
a 199 169 1
a 169 170 2
a 170 169 2
a 170 200 9
a 200 170 9
a 170 171 10
a 171 170 10
a 171 201 2
a 201 171 2
a 171 172 8
a 172 171 8
a 172 202 6
a 202 172 6
a 172 173 1
a 173 172 1
a 173 203 7
a 203 173 7
a 173 174 7
a 174 173 7
a 174 175 5
a 175 174 5
a 175 176 8
a 176 175 8
a 176 206 2
a 206 176 2
a 176 177 8
a 177 176 8
a 177 207 3
a 207 177 3
a 177 178 4
a 178 177 4
a 178 208 5
a 208 178 5
a 178 179 3
a 179 178 3
a 179 209 4
a 209 179 4
a 179 180 2
a 180 179 2
a 180 210 5
a 210 180 5
a 181 211 2
a 211 181 2
a 181 182 7
a 182 181 7
a 182 212 3
a 212 182 3
a 182 183 9
a 183 182 9
a 185 215 6
a 215 185 6
a 185 186 1
a 186 185 1
a 186 216 2
a 216 186 2
a 186 187 8
a 187 186 8
a 187 217 2
a 217 187 2
a 189 219 6
a 219 189 6
a 191 221 10
a 221 191 10
a 191 192 4
a 192 191 4
a 192 222 3
a 222 192 3
a 192 193 7
a 193 192 7
a 193 223 7
a 223 193 7
a 193 194 8
a 194 193 8
a 194 224 4
a 224 194 4
a 194 195 5
a 195 194 5
a 195 225 1
a 225 195 1
a 195 196 10
a 196 195 10
a 196 226 5
a 226 196 5
a 196 197 6
a 197 196 6
a 197 227 4
a 227 197 4
a 197 198 6
a 198 197 6
a 198 228 7
a 228 198 7
a 198 199 3
a 199 198 3
a 199 229 7
a 229 199 7
a 199 200 6
a 200 199 6
a 200 230 2
a 230 200 2
a 200 201 1
a 201 200 1
a 201 231 8
a 231 201 8
a 201 202 7
a 202 201 7
a 202 232 2
a 232 202 2
a 202 203 1
a 203 202 1
a 203 233 8
a 233 203 8
a 206 236 4
a 236 206 4
a 206 207 6
a 207 206 6
a 207 208 8
a 208 207 8
a 208 238 9
a 238 208 9
a 208 209 4
a 209 208 4
a 209 210 4
a 210 209 4
a 210 240 8
a 240 210 8
a 211 241 8
a 241 211 8
a 211 212 4
a 212 211 4
a 212 242 4
a 242 212 4
a 214 244 10
a 244 214 10
a 214 215 8
a 215 214 8
a 215 245 9
a 245 215 9
a 215 216 10
a 216 215 10
a 216 246 5
a 246 216 5
a 216 217 9
a 217 216 9
a 217 247 1
a 247 217 1
a 217 218 7
a 218 217 7
a 218 248 8
a 248 218 8
a 218 219 3
a 219 218 3
a 219 249 6
a 249 219 6
a 219 220 2
a 220 219 2
a 220 250 7
a 250 220 7
a 220 221 6
a 221 220 6
a 221 251 10
a 251 221 10
a 221 222 10
a 222 221 10
a 222 252 1
a 252 222 1
a 222 223 8
a 223 222 8
a 223 253 5
a 253 223 5
a 223 224 4
a 224 223 4
a 224 254 7
a 254 224 7
a 224 225 5
a 225 224 5
a 225 255 3
a 255 225 3
a 225 226 4
a 226 225 4
a 226 256 5
a 256 226 5
a 226 227 2
a 227 226 2
a 227 257 10
a 257 227 10
a 227 228 2
a 228 227 2
a 228 258 3
a 258 228 3
a 228 229 9
a 229 228 9
a 229 259 7
a 259 229 7
a 229 230 6
a 230 229 6
a 230 260 1
a 260 230 1
a 230 231 9
a 231 230 9
a 231 261 3
a 261 231 3
a 231 232 2
a 232 231 2
a 232 262 1
a 262 232 1
a 232 233 8
a 233 232 8
a 233 263 1
a 263 233 1
a 233 234 6
a 234 233 6
a 234 264 9
a 264 234 9
a 234 235 6
a 235 234 6
a 235 265 1
a 265 235 1
a 235 236 1
a 236 235 1
a 236 266 3
a 266 236 3
a 238 268 9
a 268 238 9
a 240 270 6
a 270 240 6
a 241 271 5
a 271 241 5
a 241 242 7
a 242 241 7
a 242 272 3
a 272 242 3
a 242 243 7
a 243 242 7
a 243 273 9
a 273 243 9
a 243 244 9
a 244 243 9
a 244 274 10
a 274 244 10
a 244 245 5
a 245 244 5
a 245 275 8
a 275 245 8
a 245 246 7
a 246 245 7
a 246 276 1
a 276 246 1
a 246 247 9
a 247 246 9
a 247 277 7
a 277 247 7
a 247 248 2
a 248 247 2
a 248 249 7
a 249 248 7
a 249 279 1
a 279 249 1
a 249 250 5
a 250 249 5
a 250 280 8
a 280 250 8
a 250 251 3
a 251 250 3
a 251 281 5
a 281 251 5
a 251 252 7
a 252 251 7
a 252 282 6
a 282 252 6
a 252 253 10
a 253 252 10
a 253 283 8
a 283 253 8
a 253 254 2
a 254 253 2
a 254 284 9
a 284 254 9
a 254 255 8
a 255 254 8
a 255 285 7
a 285 255 7
a 255 256 9
a 256 255 9
a 256 286 10
a 286 256 10
a 256 257 3
a 257 256 3
a 257 287 9
a 287 257 9
a 257 258 2
a 258 257 2
a 258 288 1
a 288 258 1
a 258 259 10
a 259 258 10
a 259 289 7
a 289 259 7
a 259 260 5
a 260 259 5
a 260 290 6
a 290 260 6
a 260 261 9
a 261 260 9
a 261 291 1
a 291 261 1
a 261 262 1
a 262 261 1
a 262 292 2
a 292 262 2
a 262 263 9
a 263 262 9
a 263 293 8
a 293 263 8
a 263 264 3
a 264 263 3
a 264 294 2
a 294 264 2
a 264 265 9
a 265 264 9
a 265 295 5
a 295 265 5
a 265 266 4
a 266 265 4
a 266 296 1
a 296 266 1
a 266 267 4
a 267 266 4
a 267 297 1
a 297 267 1
a 267 268 6
a 268 267 6
a 268 298 4
a 298 268 4
a 268 269 8
a 269 268 8
a 269 299 5
a 299 269 5
a 269 270 6
a 270 269 6
a 270 300 1
a 300 270 1
a 271 272 7
a 272 271 7
a 272 302 8
a 302 272 8
a 272 273 1
a 273 272 1
a 273 303 2
a 303 273 2
a 273 274 1
a 274 273 1
a 274 304 4
a 304 274 4
a 274 275 7
a 275 274 7
a 275 276 7
a 276 275 7
a 276 306 6
a 306 276 6
a 276 277 7
a 277 276 7
a 277 307 10
a 307 277 10
a 279 309 5
a 309 279 5
a 279 280 5
a 280 279 5
a 280 310 4
a 310 280 4
a 280 281 8
a 281 280 8
a 281 311 2
a 311 281 2
a 281 282 2
a 282 281 2
a 282 312 2
a 312 282 2
a 282 283 4
a 283 282 4
a 283 313 2
a 313 283 2
a 283 284 10
a 284 283 10
a 284 314 7
a 314 284 7
a 284 285 5
a 285 284 5
a 285 315 5
a 315 285 5
a 285 286 8
a 286 285 8
a 286 316 2
a 316 286 2
a 286 287 4
a 287 286 4
a 287 317 9
a 317 287 9
a 287 288 8
a 288 287 8
a 288 318 4
a 318 288 4
a 288 289 7
a 289 288 7
a 289 319 7
a 319 289 7
a 289 290 4
a 290 289 4
a 290 320 2
a 320 290 2
a 290 291 2
a 291 290 2
a 291 321 3
a 321 291 3
a 291 292 3
a 292 291 3
a 292 322 8
a 322 292 8
a 292 293 9
a 293 292 9
a 293 323 10
a 323 293 10
a 293 294 8
a 294 293 8
a 294 324 5
a 324 294 5
a 294 295 9
a 295 294 9
a 295 325 9
a 325 295 9
a 295 296 1
a 296 295 1
a 296 326 9
a 326 296 9
a 296 297 1
a 297 296 1
a 297 327 1
a 327 297 1
a 297 298 10
a 298 297 10
a 298 299 9
a 299 298 9
a 299 329 4
a 329 299 4
a 299 300 6
a 300 299 6
a 300 330 5
a 330 300 5
a 302 332 4
a 332 302 4
a 302 303 1
a 303 302 1
a 303 333 3
a 333 303 3
a 303 304 6
a 304 303 6
a 304 334 1
a 334 304 1
a 306 336 1
a 336 306 1
a 306 307 1
a 307 306 1
a 307 337 5
a 337 307 5
a 307 308 6
a 308 307 6
a 308 338 9
a 338 308 9
a 308 309 4
a 309 308 4
a 309 339 7
a 339 309 7
a 309 310 10
a 310 309 10
a 310 340 3
a 340 310 3
a 310 311 1
a 311 310 1
a 311 341 1
a 341 311 1
a 311 312 1
a 312 311 1
a 312 342 6
a 342 312 6
a 312 313 8
a 313 312 8
a 313 343 1
a 343 313 1
a 313 314 10
a 314 313 10
a 314 315 1
a 315 314 1
a 315 345 5
a 345 315 5
a 315 316 3
a 316 315 3
a 316 317 10
a 317 316 10
a 317 347 9
a 347 317 9
a 317 318 5
a 318 317 5
a 318 319 4
a 319 318 4
a 319 349 6
a 349 319 6
a 319 320 1
a 320 319 1
a 320 350 7
a 350 320 7
a 320 321 4
a 321 320 4
a 321 351 7
a 351 321 7
a 321 322 2
a 322 321 2
a 322 352 7
a 352 322 7
a 322 323 1
a 323 322 1
a 323 353 4
a 353 323 4
a 323 324 8
a 324 323 8
a 324 354 7
a 354 324 7
a 324 325 10
a 325 324 10
a 325 355 8
a 355 325 8
a 325 326 3
a 326 325 3
a 326 356 4
a 356 326 4
a 326 327 8
a 327 326 8
a 327 357 5
a 357 327 5
a 329 359 3
a 359 329 3
a 329 330 10
a 330 329 10
a 330 360 5
a 360 330 5
a 331 361 2
a 361 331 2
a 331 332 9
a 332 331 9
a 332 333 8
a 333 332 8
a 333 363 2
a 363 333 2
a 333 334 7
a 334 333 7
a 334 364 9
a 364 334 9
a 334 335 1
a 335 334 1
a 335 365 9
a 365 335 9
a 335 336 8
a 336 335 8
a 336 366 8
a 366 336 8
a 336 337 9
a 337 336 9
a 337 367 9
a 367 337 9
a 337 338 10
a 338 337 10
a 338 368 5
a 368 338 5
a 338 339 10
a 339 338 10
a 339 369 4
a 369 339 4
a 339 340 2
a 340 339 2
a 340 370 5
a 370 340 5
a 340 341 5
a 341 340 5
a 341 371 5
a 371 341 5
a 341 342 7
a 342 341 7
a 342 372 6
a 372 342 6
a 342 343 6
a 343 342 6
a 345 375 8
a 375 345 8
a 347 377 9
a 377 347 9
a 349 379 9
a 379 349 9
a 349 350 10
a 350 349 10
a 350 351 5
a 351 350 5
a 351 381 4
a 381 351 4
a 351 352 4
a 352 351 4
a 352 382 10
a 382 352 10
a 352 353 6
a 353 352 6
a 353 383 10
a 383 353 10
a 353 354 3
a 354 353 3
a 354 384 2
a 384 354 2
a 354 355 7
a 355 354 7
a 355 385 9
a 385 355 9
a 355 356 4
a 356 355 4
a 356 386 2
a 386 356 2
a 356 357 9
a 357 356 9
a 357 387 8
a 387 357 8
a 357 358 3
a 358 357 3
a 358 388 10
a 388 358 10
a 358 359 5
a 359 358 5
a 359 389 1
a 389 359 1
a 359 360 3
a 360 359 3
a 360 390 6
a 390 360 6
a 361 391 10
a 391 361 10
a 363 393 1
a 393 363 1
a 363 364 5
a 364 363 5
a 364 365 5
a 365 364 5
a 365 395 3
a 395 365 3
a 365 366 7
a 366 365 7
a 366 396 8
a 396 366 8
a 366 367 8
a 367 366 8
a 367 397 7
a 397 367 7
a 367 368 5
a 368 367 5
a 368 398 10
a 398 368 10
a 368 369 7
a 369 368 7
a 369 399 5
a 399 369 5
a 369 370 3
a 370 369 3
a 370 400 8
a 400 370 8
a 370 371 5
a 371 370 5
a 371 401 4
a 401 371 4
a 371 372 6
a 372 371 6
a 374 404 7
a 404 374 7
a 374 375 7
a 375 374 7
a 375 405 5
a 405 375 5
a 377 407 8
a 407 377 8
a 377 378 1
a 378 377 1
a 378 379 7
a 379 378 7
a 379 409 8
a 409 379 8
a 381 411 5
a 411 381 5
a 381 382 6
a 382 381 6
a 382 412 6
a 412 382 6
a 382 383 2
a 383 382 2
a 383 413 10
a 413 383 10
a 383 384 4
a 384 383 4
a 384 414 8
a 414 384 8
a 384 385 9
a 385 384 9
a 385 415 3
a 415 385 3
a 385 386 8
a 386 385 8
a 386 416 3
a 416 386 3
a 386 387 1
a 387 386 1
a 387 417 2
a 417 387 2
a 387 388 3
a 388 387 3
a 388 418 4
a 418 388 4
a 388 389 5
a 389 388 5
a 389 419 6
a 419 389 6
a 389 390 5
a 390 389 5
a 390 420 8
a 420 390 8
a 391 392 9
a 392 391 9
a 392 422 5
a 422 392 5
a 392 393 5
a 393 392 5
a 393 423 2
a 423 393 2
a 395 425 6
a 425 395 6
a 395 396 1
a 396 395 1
a 396 426 1
a 426 396 1
a 396 397 2
a 397 396 2
a 397 427 3
a 427 397 3
a 397 398 1
a 398 397 1
a 398 428 8
a 428 398 8
a 398 399 3
a 399 398 3
a 399 429 4
a 429 399 4
a 399 400 6
a 400 399 6
a 400 430 3
a 430 400 3
a 400 401 6
a 401 400 6
a 401 431 3
a 431 401 3
a 403 433 9
a 433 403 9
a 403 404 5
a 404 403 5
a 404 434 1
a 434 404 1
a 404 405 8
a 405 404 8
a 405 435 2
a 435 405 2
a 405 406 7
a 406 405 7
a 406 436 6
a 436 406 6
a 406 407 7
a 407 406 7
a 407 437 8
a 437 407 8
a 409 439 9
a 439 409 9
a 409 410 5
a 410 409 5
a 410 440 9
a 440 410 9
a 410 411 10
a 411 410 10
a 411 441 5
a 441 411 5
a 411 412 3
a 412 411 3
a 412 442 7
a 442 412 7
a 412 413 10
a 413 412 10
a 413 443 10
a 443 413 10
a 413 414 6
a 414 413 6
a 414 444 8
a 444 414 8
a 414 415 8
a 415 414 8
a 415 445 1
a 445 415 1
a 415 416 6
a 416 415 6
a 416 446 6
a 446 416 6
a 416 417 3
a 417 416 3
a 417 447 5
a 447 417 5
a 417 418 7
a 418 417 7
a 418 448 2
a 448 418 2
a 418 419 10
a 419 418 10
a 419 449 4
a 449 419 4
a 419 420 1
a 420 419 1
a 422 452 1
a 452 422 1
a 422 423 4
a 423 422 4
a 423 424 8
a 424 423 8
a 424 454 3
a 454 424 3
a 424 425 7
a 425 424 7
a 425 455 7
a 455 425 7
a 425 426 5
a 426 425 5
a 426 427 7
a 427 426 7
a 427 457 6
a 457 427 6
a 427 428 10
a 428 427 10
a 428 458 3
a 458 428 3
a 428 429 8
a 429 428 8
a 429 459 9
a 459 429 9
a 429 430 6
a 430 429 6
a 430 460 2
a 460 430 2
a 430 431 7
a 431 430 7
a 431 461 8
a 461 431 8
a 431 432 1
a 432 431 1
a 432 462 6
a 462 432 6
a 432 433 8
a 433 432 8
a 433 463 10
a 463 433 10
a 433 434 10
a 434 433 10
a 434 464 6
a 464 434 6
a 434 435 5
a 435 434 5
a 435 465 5
a 465 435 5
a 435 436 3
a 436 435 3
a 436 466 1
a 466 436 1
a 436 437 2
a 437 436 2
a 437 467 8
a 467 437 8
a 439 469 7
a 469 439 7
a 439 440 8
a 440 439 8
a 440 470 9
a 470 440 9
a 440 441 1
a 441 440 1
a 441 471 8
a 471 441 8
a 441 442 7
a 442 441 7
a 442 443 6
a 443 442 6
a 443 473 1
a 473 443 1
a 443 444 6
a 444 443 6
a 444 445 8
a 445 444 8
a 445 475 2
a 475 445 2
a 445 446 1
a 446 445 1
a 446 476 2
a 476 446 2
a 446 447 2
a 447 446 2
a 447 477 4
a 477 447 4
a 447 448 5
a 448 447 5
a 448 478 8
a 478 448 8
a 448 449 9
a 449 448 9
a 449 479 8
a 479 449 8
a 451 481 8
a 481 451 8
a 451 452 10
a 452 451 10
a 452 482 6
a 482 452 6
a 454 484 4
a 484 454 4
a 454 455 2
a 455 454 2
a 455 485 6
a 485 455 6
a 457 487 7
a 487 457 7
a 457 458 6
a 458 457 6
a 458 488 10
a 488 458 10
a 458 459 10
a 459 458 10
a 459 489 1
a 489 459 1
a 459 460 5
a 460 459 5
a 460 490 8
a 490 460 8
a 460 461 2
a 461 460 2
a 461 491 6
a 491 461 6
a 461 462 6
a 462 461 6
a 462 492 6
a 492 462 6
a 462 463 10
a 463 462 10
a 463 493 6
a 493 463 6
a 463 464 4
a 464 463 4
a 464 494 3
a 494 464 3
a 464 465 8
a 465 464 8
a 465 495 9
a 495 465 9
a 465 466 8
a 466 465 8
a 466 496 3
a 496 466 3
a 466 467 9
a 467 466 9
a 467 497 8
a 497 467 8
a 467 468 8
a 468 467 8
a 468 498 5
a 498 468 5
a 468 469 6
a 469 468 6
a 469 470 10
a 470 469 10
a 470 500 7
a 500 470 7
a 470 471 9
a 471 470 9
a 471 501 6
a 501 471 6
a 473 503 4
a 503 473 4
a 475 505 6
a 505 475 6
a 475 476 6
a 476 475 6
a 476 506 4
a 506 476 4
a 476 477 3
a 477 476 3
a 477 507 6
a 507 477 6
a 477 478 3
a 478 477 3
a 478 508 5
a 508 478 5
a 478 479 8
a 479 478 8
a 479 509 8
a 509 479 8
a 481 511 5
a 511 481 5
a 481 482 8
a 482 481 8
a 482 512 2
a 512 482 2
a 482 483 5
a 483 482 5
a 483 513 5
a 513 483 5
a 483 484 8
a 484 483 8
a 484 514 1
a 514 484 1
a 484 485 6
a 485 484 6
a 485 486 10
a 486 485 10
a 486 516 8
a 516 486 8
a 486 487 9
a 487 486 9
a 487 517 7
a 517 487 7
a 487 488 1
a 488 487 1
a 488 518 1
a 518 488 1
a 488 489 8
a 489 488 8
a 489 490 4
a 490 489 4
a 490 520 8
a 520 490 8
a 490 491 9
a 491 490 9
a 491 492 2
a 492 491 2
a 492 522 1
a 522 492 1
a 492 493 5
a 493 492 5
a 493 523 2
a 523 493 2
a 493 494 5
a 494 493 5
a 494 524 4
a 524 494 4
a 494 495 8
a 495 494 8
a 495 525 8
a 525 495 8
a 495 496 7
a 496 495 7
a 496 526 10
a 526 496 10
a 496 497 3
a 497 496 3
a 497 527 7
a 527 497 7
a 497 498 6
a 498 497 6
a 498 528 2
a 528 498 2
a 500 530 4
a 530 500 4
a 500 501 10
a 501 500 10
a 501 531 8
a 531 501 8
a 501 502 3
a 502 501 3
a 502 532 4
a 532 502 4
a 502 503 2
a 503 502 2
a 503 533 2
a 533 503 2
a 505 535 6
a 535 505 6
a 505 506 2
a 506 505 2
a 506 536 10
a 536 506 10
a 506 507 9
a 507 506 9
a 507 537 1
a 537 507 1
a 507 508 1
a 508 507 1
a 508 538 10
a 538 508 10
a 508 509 6
a 509 508 6
a 509 539 5
a 539 509 5
a 509 510 5
a 510 509 5
a 510 540 1
a 540 510 1
a 511 512 6
a 512 511 6
a 512 542 7
a 542 512 7
a 512 513 3
a 513 512 3
a 513 543 10
a 543 513 10
a 513 514 3
a 514 513 3
a 514 544 8
a 544 514 8
a 516 546 8
a 546 516 8
a 516 517 9
a 517 516 9
a 517 518 8
a 518 517 8
a 518 548 9
a 548 518 9
a 520 550 8
a 550 520 8
a 522 552 2
a 552 522 2
a 522 523 7
a 523 522 7
a 523 553 10
a 553 523 10
a 523 524 10
a 524 523 10
a 524 554 7
a 554 524 7
a 524 525 9
a 525 524 9
a 525 555 7
a 555 525 7
a 525 526 1
a 526 525 1
a 526 556 5
a 556 526 5
a 526 527 2
a 527 526 2
a 527 557 3
a 557 527 3
a 527 528 10
a 528 527 10
a 528 558 9
a 558 528 9
a 528 529 10
a 529 528 10
a 529 559 9
a 559 529 9
a 529 530 2
a 530 529 2
a 530 560 4
a 560 530 4
a 530 531 6
a 531 530 6
a 531 532 4
a 532 531 4
a 532 562 1
a 562 532 1
a 532 533 10
a 533 532 10
a 533 563 1
a 563 533 1
a 533 534 6
a 534 533 6
a 534 564 3
a 564 534 3
a 534 535 6
a 535 534 6
a 535 565 1
a 565 535 1
a 535 536 6
a 536 535 6
a 536 566 1
a 566 536 1
a 536 537 10
a 537 536 10
a 537 567 3
a 567 537 3
a 537 538 6
a 538 537 6
a 538 568 5
a 568 538 5
a 538 539 9
a 539 538 9
a 539 569 7
a 569 539 7
a 539 540 10
a 540 539 10
a 540 570 6
a 570 540 6
a 542 572 1
a 572 542 1
a 542 543 9
a 543 542 9
a 543 573 9
a 573 543 9
a 543 544 9
a 544 543 9
a 544 574 3
a 574 544 3
a 544 545 5
a 545 544 5
a 545 575 3
a 575 545 3
a 545 546 2
a 546 545 2
a 546 576 6
a 576 546 6
a 548 578 5
a 578 548 5
a 548 549 2
a 549 548 2
a 549 579 7
a 579 549 7
a 549 550 5
a 550 549 5
a 550 580 5
a 580 550 5
a 550 551 9
a 551 550 9
a 551 581 8
a 581 551 8
a 551 552 10
a 552 551 10
a 552 582 8
a 582 552 8
a 552 553 9
a 553 552 9
a 553 583 3
a 583 553 3
a 553 554 2
a 554 553 2
a 554 584 7
a 584 554 7
a 554 555 5
a 555 554 5
a 555 585 7
a 585 555 7
a 555 556 3
a 556 555 3
a 556 557 3
a 557 556 3
a 557 587 5
a 587 557 5
a 557 558 8
a 558 557 8
a 558 588 5
a 588 558 5
a 558 559 4
a 559 558 4
a 559 589 3
a 589 559 3
a 559 560 8
a 560 559 8
a 560 590 3
a 590 560 3
a 562 592 9
a 592 562 9
a 562 563 8
a 563 562 8
a 563 593 9
a 593 563 9
a 563 564 9
a 564 563 9
a 564 594 2
a 594 564 2
a 564 565 7
a 565 564 7
a 565 595 4
a 595 565 4
a 565 566 10
a 566 565 10
a 566 596 6
a 596 566 6
a 566 567 6
a 567 566 6
a 567 597 6
a 597 567 6
a 567 568 9
a 568 567 9
a 568 598 5
a 598 568 5
a 568 569 7
a 569 568 7
a 569 599 6
a 599 569 6
a 569 570 3
a 570 569 3
a 570 600 2
a 600 570 2
a 571 601 4
a 601 571 4
a 571 572 1
a 572 571 1
a 572 602 8
a 602 572 8
a 572 573 4
a 573 572 4
a 573 603 1
a 603 573 1
a 573 574 4
a 574 573 4
a 574 604 6
a 604 574 6
a 574 575 8
a 575 574 8
a 575 605 9
a 605 575 9
a 575 576 8
a 576 575 8
a 576 606 4
a 606 576 4
a 576 577 10
a 577 576 10
a 577 607 6
a 607 577 6
a 577 578 7
a 578 577 7
a 578 608 3
a 608 578 3
a 578 579 4
a 579 578 4
a 579 609 3
a 609 579 3
a 579 580 10
a 580 579 10
a 580 610 6
a 610 580 6
a 580 581 2
a 581 580 2
a 581 611 1
a 611 581 1
a 581 582 9
a 582 581 9
a 582 612 2
a 612 582 2
a 582 583 10
a 583 582 10
a 583 613 5
a 613 583 5
a 583 584 4
a 584 583 4
a 584 614 5
a 614 584 5
a 584 585 1
a 585 584 1
a 585 615 3
a 615 585 3
a 587 617 2
a 617 587 2
a 587 588 3
a 588 587 3
a 588 618 9
a 618 588 9
a 588 589 6
a 589 588 6
a 589 619 6
a 619 589 6
a 589 590 5
a 590 589 5
a 590 620 2
a 620 590 2
a 590 591 10
a 591 590 10
a 591 621 3
a 621 591 3
a 591 592 6
a 592 591 6
a 592 622 3
a 622 592 3
a 592 593 5
a 593 592 5
a 593 623 6
a 623 593 6
a 593 594 9
a 594 593 9
a 594 624 10
a 624 594 10
a 594 595 7
a 595 594 7
a 595 625 8
a 625 595 8
a 595 596 2
a 596 595 2
a 596 626 4
a 626 596 4
a 596 597 10
a 597 596 10
a 597 627 10
a 627 597 10
a 597 598 8
a 598 597 8
a 598 628 4
a 628 598 4
a 598 599 6
a 599 598 6
a 599 629 1
a 629 599 1
a 599 600 8
a 600 599 8
a 600 630 6
a 630 600 6
a 601 631 6
a 631 601 6
a 601 602 1
a 602 601 1
a 602 632 7
a 632 602 7
a 602 603 4
a 603 602 4
a 603 633 10
a 633 603 10
a 603 604 4
a 604 603 4
a 604 605 2
a 605 604 2
a 605 635 5
a 635 605 5
a 605 606 5
a 606 605 5
a 606 636 1
a 636 606 1
a 606 607 3
a 607 606 3
a 607 637 1
a 637 607 1
a 607 608 6
a 608 607 6
a 608 638 8
a 638 608 8
a 608 609 4
a 609 608 4
a 609 639 6
a 639 609 6
a 609 610 8
a 610 609 8
a 610 640 8
a 640 610 8
a 610 611 8
a 611 610 8
a 611 641 1
a 641 611 1
a 611 612 5
a 612 611 5
a 612 642 5
a 642 612 5
a 612 613 7
a 613 612 7
a 613 643 6
a 643 613 6
a 613 614 5
a 614 613 5
a 614 644 4
a 644 614 4
a 614 615 7
a 615 614 7
a 615 616 3
a 616 615 3
a 616 646 6
a 646 616 6
a 616 617 10
a 617 616 10
a 617 647 4
a 647 617 4
a 617 618 6
a 618 617 6
a 618 648 8
a 648 618 8
a 618 619 6
a 619 618 6
a 619 649 10
a 649 619 10
a 619 620 9
a 620 619 9
a 620 621 4
a 621 620 4
a 621 651 5
a 651 621 5
a 621 622 6
a 622 621 6
a 622 652 6
a 652 622 6
a 622 623 1
a 623 622 1
a 623 653 3
a 653 623 3
a 623 624 4
a 624 623 4
a 624 654 10
a 654 624 10
a 624 625 6
a 625 624 6
a 625 655 3
a 655 625 3
a 625 626 3
a 626 625 3
a 626 656 1
a 656 626 1
a 626 627 8
a 627 626 8
a 627 657 2
a 657 627 2
a 627 628 6
a 628 627 6
a 628 658 8
a 658 628 8
a 628 629 6
a 629 628 6
a 629 659 2
a 659 629 2
a 629 630 8
a 630 629 8
a 631 661 4
a 661 631 4
a 631 632 4
a 632 631 4
a 632 662 4
a 662 632 4
a 632 633 7
a 633 632 7
a 633 663 6
a 663 633 6
a 635 665 4
a 665 635 4
a 635 636 1
a 636 635 1
a 636 666 10
a 666 636 10
a 636 637 8
a 637 636 8
a 637 667 1
a 667 637 1
a 637 638 9
a 638 637 9
a 638 668 7
a 668 638 7
a 638 639 5
a 639 638 5
a 639 669 10
a 669 639 10
a 639 640 8
a 640 639 8
a 640 670 8
a 670 640 8
a 640 641 3
a 641 640 3
a 641 671 1
a 671 641 1
a 641 642 8
a 642 641 8
a 642 672 1
a 672 642 1
a 642 643 9
a 643 642 9
a 643 673 7
a 673 643 7
a 643 644 9
a 644 643 9
a 644 674 1
a 674 644 1
a 646 647 2
a 647 646 2
a 647 677 3
a 677 647 3
a 647 648 6
a 648 647 6
a 648 678 4
a 678 648 4
a 648 649 6
a 649 648 6
a 649 679 8
a 679 649 8
a 651 681 4
a 681 651 4
a 651 652 7
a 652 651 7
a 652 682 7
a 682 652 7
a 652 653 9
a 653 652 9
a 653 683 9
a 683 653 9
a 653 654 10
a 654 653 10
a 654 655 2
a 655 654 2
a 655 656 1
a 656 655 1
a 656 657 2
a 657 656 2
a 657 687 10
a 687 657 10
a 657 658 5
a 658 657 5
a 658 688 9
a 688 658 9
a 658 659 9
a 659 658 9
a 659 689 1
a 689 659 1
a 661 662 8
a 662 661 8
a 662 692 3
a 692 662 3
a 662 663 5
a 663 662 5
a 663 693 6
a 693 663 6
a 663 664 4
a 664 663 4
a 664 694 2
a 694 664 2
a 664 665 3
a 665 664 3
a 665 695 10
a 695 665 10
a 665 666 1
a 666 665 1
a 666 696 4
a 696 666 4
a 666 667 3
a 667 666 3
a 667 697 7
a 697 667 7
a 667 668 5
a 668 667 5
a 668 669 5
a 669 668 5
a 669 670 5
a 670 669 5
a 670 700 3
a 700 670 3
a 670 671 3
a 671 670 3
a 671 701 9
a 701 671 9
a 671 672 9
a 672 671 9
a 672 702 10
a 702 672 10
a 672 673 2
a 673 672 2
a 673 703 3
a 703 673 3
a 673 674 5
a 674 673 5
a 674 704 9
a 704 674 9
a 674 675 6
a 675 674 6
a 675 705 8
a 705 675 8
a 677 678 9
a 678 677 9
a 678 708 5
a 708 678 5
a 678 679 10
a 679 678 10
a 679 709 5
a 709 679 5
a 679 680 6
a 680 679 6
a 680 710 9
a 710 680 9
a 680 681 3
a 681 680 3
a 681 711 3
a 711 681 3
a 681 682 1
a 682 681 1
a 682 712 6
a 712 682 6
a 682 683 6
a 683 682 6
a 683 713 8
a 713 683 8
a 687 717 10
a 717 687 10
a 687 688 4
a 688 687 4
a 688 718 4
a 718 688 4
a 688 689 10
a 689 688 10
a 689 719 3
a 719 689 3
a 689 690 10
a 690 689 10
a 690 720 10
a 720 690 10
a 692 722 9
a 722 692 9
a 692 693 1
a 693 692 1
a 693 694 2
a 694 693 2
a 694 724 1
a 724 694 1
a 694 695 6
a 695 694 6
a 695 725 1
a 725 695 1
a 695 696 9
a 696 695 9
a 696 726 7
a 726 696 7
a 696 697 2
a 697 696 2
a 697 727 9
a 727 697 9
a 700 730 4
a 730 700 4
a 700 701 4
a 701 700 4
a 701 731 8
a 731 701 8
a 701 702 2
a 702 701 2
a 702 732 3
a 732 702 3
a 702 703 4
a 703 702 4
a 703 733 8
a 733 703 8
a 703 704 10
a 704 703 10
a 704 734 9
a 734 704 9
a 704 705 9
a 705 704 9
a 705 735 8
a 735 705 8
a 705 706 5
a 706 705 5
a 706 736 7
a 736 706 7
a 708 738 8
a 738 708 8
a 708 709 4
a 709 708 4
a 709 739 2
a 739 709 2
a 709 710 5
a 710 709 5
a 710 740 10
a 740 710 10
a 710 711 2
a 711 710 2
a 711 741 10
a 741 711 10
a 711 712 9
a 712 711 9
a 712 742 5
a 742 712 5
a 712 713 3
a 713 712 3
a 713 714 3
a 714 713 3
a 714 744 10
a 744 714 10
a 714 715 8
a 715 714 8
a 715 745 1
a 745 715 1
a 715 716 5
a 716 715 5
a 716 746 5
a 746 716 5
a 716 717 6
a 717 716 6
a 717 747 9
a 747 717 9
a 717 718 3
a 718 717 3
a 718 748 7
a 748 718 7
a 718 719 6
a 719 718 6
a 719 749 1
a 749 719 1
a 719 720 8
a 720 719 8
a 721 751 1
a 751 721 1
a 721 722 5
a 722 721 5
a 722 752 7
a 752 722 7
a 724 754 1
a 754 724 1
a 724 725 3
a 725 724 3
a 725 755 5
a 755 725 5
a 725 726 9
a 726 725 9
a 726 756 5
a 756 726 5
a 726 727 1
a 727 726 1
a 727 757 4
a 757 727 4
a 729 759 4
a 759 729 4
a 729 730 6
a 730 729 6
a 730 760 3
a 760 730 3
a 730 731 1
a 731 730 1
a 731 761 8
a 761 731 8
a 731 732 3
a 732 731 3
a 732 762 7
a 762 732 7
a 732 733 6
a 733 732 6
a 733 763 1
a 763 733 1
a 733 734 6
a 734 733 6
a 734 764 10
a 764 734 10
a 734 735 4
a 735 734 4
a 735 765 7
a 765 735 7
a 735 736 10
a 736 735 10
a 736 766 9
a 766 736 9
a 736 737 10
a 737 736 10
a 737 767 5
a 767 737 5
a 737 738 9
a 738 737 9
a 738 739 1
a 739 738 1
a 739 769 7
a 769 739 7
a 739 740 5
a 740 739 5
a 740 770 3
a 770 740 3
a 740 741 5
a 741 740 5
a 741 771 4
a 771 741 4
a 741 742 5
a 742 741 5
a 742 772 2
a 772 742 2
a 744 745 8
a 745 744 8
a 745 746 10
a 746 745 10
a 746 776 8
a 776 746 8
a 746 747 1
a 747 746 1
a 747 777 8
a 777 747 8
a 747 748 3
a 748 747 3
a 748 749 10
a 749 748 10
a 749 779 10
a 779 749 10
a 751 781 9
a 781 751 9
a 751 752 2
a 752 751 2
a 752 782 6
a 782 752 6
a 752 753 9
a 753 752 9
a 753 783 7
a 783 753 7
a 753 754 8
a 754 753 8
a 754 784 1
a 784 754 1
a 754 755 7
a 755 754 7
a 755 785 2
a 785 755 2
a 755 756 4
a 756 755 4
a 756 757 2
a 757 756 2
a 757 787 7
a 787 757 7
a 757 758 1
a 758 757 1
a 758 788 6
a 788 758 6
a 758 759 4
a 759 758 4
a 759 760 3
a 760 759 3
a 760 790 7
a 790 760 7
a 760 761 2
a 761 760 2
a 761 791 9
a 791 761 9
a 761 762 1
a 762 761 1
a 762 792 2
a 792 762 2
a 762 763 3
a 763 762 3
a 763 793 1
a 793 763 1
a 763 764 6
a 764 763 6
a 764 794 10
a 794 764 10
a 764 765 7
a 765 764 7
a 765 795 4
a 795 765 4
a 765 766 4
a 766 765 4
a 766 796 3
a 796 766 3
a 766 767 4
a 767 766 4
a 767 797 8
a 797 767 8
a 769 770 10
a 770 769 10
a 770 771 3
a 771 770 3
a 771 801 10
a 801 771 10
a 771 772 5
a 772 771 5
a 772 802 5
a 802 772 5
a 772 773 1
a 773 772 1
a 773 803 7
a 803 773 7
a 776 806 9
a 806 776 9
a 776 777 10
a 777 776 10
a 777 807 1
a 807 777 1
a 779 809 6
a 809 779 6
a 779 780 6
a 780 779 6
a 780 810 10
a 810 780 10
a 781 811 4
a 811 781 4
a 781 782 5
a 782 781 5
a 782 812 5
a 812 782 5
a 782 783 5
a 783 782 5
a 783 813 7
a 813 783 7
a 783 784 7
a 784 783 7
a 784 814 6
a 814 784 6
a 784 785 5
a 785 784 5
a 785 815 5
a 815 785 5
a 787 817 6
a 817 787 6
a 787 788 8
a 788 787 8
a 788 818 10
a 818 788 10
a 790 820 10
a 820 790 10
a 790 791 10
a 791 790 10
a 791 821 6
a 821 791 6
a 791 792 7
a 792 791 7
a 792 822 3
a 822 792 3
a 792 793 4
a 793 792 4
a 793 823 7
a 823 793 7
a 793 794 8
a 794 793 8
a 794 824 1
a 824 794 1
a 794 795 1
a 795 794 1
a 795 825 7
a 825 795 7
a 795 796 10
a 796 795 10
a 796 826 10
a 826 796 10
a 796 797 7
a 797 796 7
a 797 827 2
a 827 797 2
a 797 798 6
a 798 797 6
a 798 828 10
a 828 798 10
a 801 802 1
a 802 801 1
a 802 832 3
a 832 802 3
a 802 803 5
a 803 802 5
a 803 804 9
a 804 803 9
a 804 834 9
a 834 804 9
a 804 805 8
a 805 804 8
a 805 806 5
a 806 805 5
a 806 836 7
a 836 806 7
a 806 807 8
a 807 806 8
a 807 837 9
a 837 807 9
a 807 808 10
a 808 807 10
a 808 838 9
a 838 808 9
a 808 809 8
a 809 808 8
a 809 839 8
a 839 809 8
a 809 810 10
a 810 809 10
a 810 840 1
a 840 810 1
a 811 841 3
a 841 811 3
a 811 812 10
a 812 811 10
a 812 842 3
a 842 812 3
a 812 813 2
a 813 812 2
a 813 843 4
a 843 813 4
a 813 814 1
a 814 813 1
a 814 844 9
a 844 814 9
a 814 815 8
a 815 814 8
a 815 845 3
a 845 815 3
a 815 816 5
a 816 815 5
a 816 846 8
a 846 816 8
a 816 817 1
a 817 816 1
a 817 847 9
a 847 817 9
a 817 818 2
a 818 817 2
a 818 848 10
a 848 818 10
a 818 819 2
a 819 818 2
a 819 849 1
a 849 819 1
a 819 820 1
a 820 819 1
a 820 821 3
a 821 820 3
a 821 851 6
a 851 821 6
a 821 822 5
a 822 821 5
a 822 852 3
a 852 822 3
a 822 823 5
a 823 822 5
a 823 824 3
a 824 823 3
a 824 854 1
a 854 824 1
a 824 825 3
a 825 824 3
a 825 855 4
a 855 825 4
a 825 826 5
a 826 825 5
a 826 856 10
a 856 826 10
a 826 827 7
a 827 826 7
a 827 857 2
a 857 827 2
a 827 828 7
a 828 827 7
a 828 858 6
a 858 828 6
a 832 862 4
a 862 832 4
a 834 864 6
a 864 834 6
a 836 837 1
a 837 836 1
a 837 867 7
a 867 837 7
a 837 838 4
a 838 837 4
a 838 868 6
a 868 838 6
a 838 839 10
a 839 838 10
a 839 869 4
a 869 839 4
a 839 840 3
a 840 839 3
a 840 870 4
a 870 840 4
a 841 842 8
a 842 841 8
a 842 872 8
a 872 842 8
a 842 843 9
a 843 842 9
a 843 873 1
a 873 843 1
a 843 844 5
a 844 843 5
a 844 874 10
a 874 844 10
a 844 845 6
a 845 844 6
a 845 846 8
a 846 845 8
a 846 876 4
a 876 846 4
a 846 847 3
a 847 846 3
a 847 877 10
a 877 847 10
a 847 848 3
a 848 847 3
a 848 878 5
a 878 848 5
a 848 849 8
a 849 848 8
a 851 881 7
a 881 851 7
a 851 852 3
a 852 851 3
a 852 882 5
a 882 852 5
a 854 855 6
a 855 854 6
a 855 885 2
a 885 855 2
a 855 856 6
a 856 855 6
a 856 886 3
a 886 856 3
a 856 857 9
a 857 856 9
a 857 887 9
a 887 857 9
a 857 858 6
a 858 857 6
a 858 888 3
a 888 858 3
a 858 859 2
a 859 858 2
a 859 889 7
a 889 859 7
a 861 891 9
a 891 861 9
a 861 862 1
a 862 861 1
a 862 892 3
a 892 862 3
a 862 863 3
a 863 862 3
a 863 893 6
a 893 863 6
a 863 864 8
a 864 863 8
a 864 894 3
a 894 864 3
a 864 865 3
a 865 864 3
a 865 895 10
a 895 865 10
a 867 897 6
a 897 867 6
a 867 868 6
a 868 867 6
a 868 898 10
a 898 868 10
a 868 869 7
a 869 868 7
a 869 899 9
a 899 869 9
a 869 870 1
a 870 869 1
a 870 900 7
a 900 870 7
a 872 873 2
a 873 872 2
a 873 874 4
a 874 873 4
a 876 877 3
a 877 876 3
a 877 878 8
a 878 877 8
a 880 881 4
a 881 880 4
a 881 882 4
a 882 881 4
a 882 883 4
a 883 882 4
a 885 886 4
a 886 885 4
a 886 887 2
a 887 886 2
a 887 888 3
a 888 887 3
a 888 889 5
a 889 888 5
a 889 890 4
a 890 889 4
a 890 891 4
a 891 890 4
a 891 892 10
a 892 891 10
a 892 893 8
a 893 892 8
a 893 894 8
a 894 893 8
a 894 895 6
a 895 894 6
a 895 896 9
a 896 895 9
a 896 897 3
a 897 896 3
a 897 898 1
a 898 897 1
a 898 899 5
a 899 898 5
a 899 900 4
a 900 899 4
